experiment/data/hgs-res/Vrp-Set-CMT-n151/Vrp-Set-CMT-n151-hgs/1.hgs1.vrp
NAME : 1
COMMENT : CVRP Instance
TYPE : CVRP
DIMENSION : 151
EDGE_WEIGHT_TYPE : EUC_2D
CAPACITY : 200
NODE_COORD_SECTION
1	35.0	35.0
2	37.0	52.0
3	49.0	49.0
4	52.0	64.0
5	20.0	26.0
6	40.0	30.0
7	21.0	47.0
8	17.0	63.0
9	31.0	62.0
10	52.0	33.0
11	51.0	21.0
12	42.0	41.0
13	31.0	32.0
14	5.0	25.0
15	12.0	42.0
16	36.0	16.0
17	52.0	41.0
18	27.0	23.0
19	17.0	33.0
20	13.0	13.0
21	57.0	58.0
22	62.0	42.0
23	42.0	57.0
24	16.0	57.0
25	8.0	52.0
26	7.0	38.0
27	27.0	68.0
28	30.0	48.0
29	43.0	67.0
30	58.0	48.0
31	58.0	27.0
32	37.0	69.0
33	38.0	46.0
34	46.0	10.0
35	61.0	33.0
36	62.0	63.0
37	63.0	69.0
38	32.0	22.0
39	45.0	35.0
40	59.0	15.0
41	5.0	6.0
42	10.0	17.0
43	21.0	10.0
44	5.0	64.0
45	30.0	15.0
46	39.0	10.0
47	32.0	39.0
48	25.0	32.0
49	25.0	55.0
50	48.0	28.0
51	56.0	37.0
52	41.0	49.0
53	35.0	17.0
54	55.0	45.0
55	55.0	20.0
56	15.0	30.0
57	25.0	30.0
58	20.0	50.0
59	10.0	43.0
60	55.0	60.0
61	30.0	60.0
62	20.0	65.0
63	50.0	35.0
64	30.0	25.0
65	15.0	10.0
66	30.0	5.0
67	10.0	20.0
68	5.0	30.0
69	20.0	40.0
70	15.0	60.0
71	45.0	65.0
72	45.0	20.0
73	45.0	10.0
74	55.0	5.0
75	65.0	35.0
76	65.0	20.0
77	45.0	30.0
78	35.0	40.0
79	41.0	37.0
80	64.0	42.0
81	40.0	60.0
82	31.0	52.0
83	35.0	69.0
84	53.0	52.0
85	65.0	55.0
86	63.0	65.0
87	2.0	60.0
88	20.0	20.0
89	5.0	5.0
90	60.0	12.0
91	40.0	25.0
92	42.0	7.0
93	24.0	12.0
94	23.0	3.0
95	11.0	14.0
96	6.0	38.0
97	2.0	48.0
98	8.0	56.0
99	13.0	52.0
100	6.0	68.0
101	47.0	47.0
102	49.0	58.0
103	27.0	43.0
104	37.0	31.0
105	57.0	29.0
106	63.0	23.0
107	53.0	12.0
108	32.0	12.0
109	36.0	26.0
110	21.0	24.0
111	17.0	34.0
112	12.0	24.0
113	24.0	58.0
114	27.0	69.0
115	15.0	77.0
116	62.0	77.0
117	49.0	73.0
118	67.0	5.0
119	56.0	39.0
120	37.0	47.0
121	37.0	56.0
122	57.0	68.0
123	47.0	16.0
124	44.0	17.0
125	46.0	13.0
126	49.0	11.0
127	49.0	42.0
128	53.0	43.0
129	61.0	52.0
130	57.0	48.0
131	56.0	37.0
132	55.0	54.0
133	15.0	47.0
134	14.0	37.0
135	11.0	31.0
136	16.0	22.0
137	4.0	18.0
138	28.0	18.0
139	26.0	52.0
140	26.0	35.0
141	31.0	67.0
142	15.0	19.0
143	22.0	22.0
144	18.0	24.0
145	26.0	27.0
146	25.0	24.0
147	22.0	27.0
148	25.0	21.0
149	19.0	21.0
150	20.0	26.0
151	18.0	18.0
DEMAND_SECTION
1	0
2	7
3	30
4	16
5	9
6	21
7	15
8	19
9	23
10	11
11	5
12	19
13	29
14	23
15	21
16	10
17	15
18	3
19	41
20	9
21	28
22	8
23	8
24	16
25	10
26	28
27	7
28	15
29	14
30	6
31	19
32	11
33	12
34	23
35	26
36	17
37	6
38	9
39	15
40	14
41	7
42	27
43	13
44	11
45	16
46	10
47	5
48	25
49	17
50	18
51	10
52	10
53	7
54	13
55	19
56	26
57	3
58	5
59	9
60	16
61	16
62	12
63	19
64	23
65	20
66	8
67	19
68	2
69	12
70	17
71	9
72	11
73	18
74	29
75	3
76	6
77	17
78	16
79	16
80	9
81	21
82	27
83	23
84	11
85	14
86	8
87	5
88	8
89	16
90	31
91	9
92	5
93	5
94	7
95	18
96	16
97	1
98	27
99	36
100	30
101	13
102	10
103	9
104	14
105	18
106	2
107	6
108	7
109	18
110	28
111	3
112	13
113	19
114	10
115	9
116	20
117	25
118	25
119	36
120	6
121	5
122	15
123	25
124	9
125	8
126	18
127	13
128	14
129	3
130	23
131	6
132	26
133	16
134	11
135	7
136	41
137	35
138	26
139	9
140	15
141	3
142	1
143	2
144	22
145	27
146	20
147	11
148	12
149	10
150	9
151	17
DEPOT_SECTION
1
-1
EOF
